set JOBS := 1 2 3 4 5 6 7 8 9 10 11 12 13 14 15 16 17 18 19 20 21;
param M := 1000;

param processing_time := 
1 8
2 10
3 9
4 7
5 2
6 2
7 8
8 8
9 2
10 8
11 10
12 7
13 2
14 5
15 1
16 9
17 1
18 2
19 9
20 9
21 4;

param weight :=
1 21
2 16
3 22
4 6
5 19
6 7
7 7
8 13
9 11
10 15
11 8
12 12
13 16
14 20
15 24
16 8
17 17
18 13
19 1
20 5
21 9;

